Instance name: /mnt/c/Users/ORG/CLionProjects/uMV-FSTSP/Murray_Chu_2015_test_data/FSTSP/FSTSP_10_customer_problems/20140810T123443v3

drone speed: 0.2 miles/minute
uav non-eligible customer: 4 8 
Printing number of nodes: 11

Set parameter Threads to value 20
Gurobi Optimizer version 11.0.0 build v11.0.0rc2 (linux64 - "Ubuntu 22.04.3 LTS")

CPU model: 13th Gen Intel(R) Core(TM) i5-13500, instruction set [SSE2|AVX|AVX2]
Thread count: 10 physical cores, 20 logical processors, using up to 20 threads

Optimize a model with 6346 rows, 1825 columns and 197322 nonzeros
Model fingerprint: 0x4b2b1d60
Variable types: 11 continuous, 1814 integer (1814 binary)
Coefficient statistics:
  Matrix range     [1e+00, 3e+01]
  Objective range  [1e+00, 3e+01]
  Bounds range     [1e+00, 1e+00]
  RHS range        [1e+00, 8e+00]
Found heuristic solution: objective 133.5791851
Presolve removed 2037 rows and 1389 columns
Presolve time: 0.28s
Presolved: 4309 rows, 436 columns, 117784 nonzeros
Variable types: 6 continuous, 430 integer (430 binary)

Root relaxation: objective 7.734390e+01, 44 iterations, 0.02 seconds (0.03 work units)

    Nodes    |    Current Node    |     Objective Bounds      |     Work
 Expl Unexpl |  Obj  Depth IntInf | Incumbent    BestBd   Gap | It/Node Time

*    0     0               0      77.3439049   77.34390  0.00%     -    0s

Explored 1 nodes (44 simplex iterations) in 0.31 seconds (0.58 work units)
Thread count was 20 (of 20 available processors)

Solution count 2: 77.3439 133.579 

Optimal solution found (tolerance 1.00e-04)
Best objective 7.734390490788e+01, best bound 7.734390490788e+01, gap 0.0000%
